words_hard_train/9445.qaiger
aag 81 15 0 1 66
2
4
8
12
16
20
28
36
42
56
72
98
100
108
122
162
6 3 5
10 6 9
14 10 13
18 14 17
22 19 20
24 18 21
26 23 25
30 26 28
32 7 8
34 33 11
38 35 37
40 39 7
44 43 4
46 40 45
48 34 36
50 47 49
52 11 12
54 53 15
58 55 57
60 54 56
62 59 61
64 51 62
66 65 61
68 15 16
70 69 19
74 71 73
76 70 72
78 75 77
80 67 78
82 81 77
84 30 83
86 39 49
88 66 79
90 89 81
92 86 91
94 27 29
96 82 94
102 98 100
104 99 101
106 103 105
110 24 109
112 106 111
114 107 110
116 113 115
118 25 108
120 119 111
124 120 122
126 116 125
128 97 127
130 92 129
132 47 63
134 130 133
136 85 134
138 45 2
140 42 5
142 138 141
144 121 123
146 145 117
148 147 65
150 142 148
152 31 82
154 145 153
156 154 95
158 157 126
160 150 159
162 136 160
i0 2 y2[0]
i1 2 y2[1]
i2 2 y2[2]
i3 2 y2[3]
i4 2 y2[4]
i5 2 y2[5]
i6 1 x2[5]
i7 1 x2[2]
i8 1 x2[1]
i9 1 x2[3]
i10 1 x2[4]
i11 1 x2[7]
i12 2 y2[7]
i13 2 y2[6]
i14 1 x2[6]
o0 bool[0]
c
simplified
  ==
    subtract
      or
        1
        1 x2
      2 y2
    << 3
      1
