words_hard_train/9445.qaiger.qdimacs
p cnf 81 199
a 36 14 49 18 21 28 61 0
e 1 2 3 4 5 6 7 8 9 10 11 12 13 15 16 17 19 20 22 23 24 25 26 27 29 30 31 32 33 34 35 37 38 39 40 41 42 43 44 45 46 47 48 50 51 52 53 54 55 56 57 58 59 60 62 63 64 65 66 67 68 69 70 71 72 73 74 75 76 77 78 79 80 81 0
1 2 3 0
-1 -3 0
-2 -3 0
-3 4 5 0
3 -5 0
-4 -5 0
-5 6 7 0
5 -7 0
-6 -7 0
-7 8 9 0
7 -9 0
-8 -9 0
9 -10 11 0
-9 -11 0
10 -11 0
-9 10 12 0
9 -12 0
-10 -12 0
11 12 13 0
-11 -13 0
-12 -13 0
-13 -14 15 0
13 -15 0
14 -15 0
3 -4 16 0
-3 -16 0
4 -16 0
16 5 17 0
-16 -17 0
-5 -17 0
17 18 19 0
-17 -19 0
-18 -19 0
19 3 20 0
-19 -20 0
-3 -20 0
21 -2 22 0
-21 -22 0
2 -22 0
-20 22 23 0
20 -23 0
-22 -23 0
-17 -18 24 0
17 -24 0
18 -24 0
23 24 25 0
-23 -25 0
-24 -25 0
5 -6 26 0
-5 -26 0
6 -26 0
26 7 27 0
-26 -27 0
-7 -27 0
27 28 29 0
-27 -29 0
-28 -29 0
-27 -28 30 0
27 -30 0
28 -30 0
29 30 31 0
-29 -31 0
-30 -31 0
25 -31 32 0
-25 -32 0
31 -32 0
32 30 33 0
-32 -33 0
-30 -33 0
7 -8 34 0
-7 -34 0
8 -34 0
34 9 35 0
-34 -35 0
-9 -35 0
35 36 37 0
-35 -37 0
-36 -37 0
-35 -36 38 0
35 -38 0
36 -38 0
37 38 39 0
-37 -39 0
-38 -39 0
33 -39 40 0
-33 -40 0
39 -40 0
40 38 41 0
-40 -41 0
-38 -41 0
-15 41 42 0
15 -42 0
-41 -42 0
19 24 43 0
-19 -43 0
-24 -43 0
-33 39 44 0
33 -44 0
-39 -44 0
44 40 45 0
-44 -45 0
-40 -45 0
-43 45 46 0
43 -46 0
-45 -46 0
13 14 47 0
-13 -47 0
-14 -47 0
-41 -47 48 0
41 -48 0
47 -48 0
-49 -50 51 0
49 -51 0
50 -51 0
49 50 52 0
-49 -52 0
-50 -52 0
51 52 53 0
-51 -53 0
-52 -53 0
-12 54 55 0
12 -55 0
-54 -55 0
-53 55 56 0
53 -56 0
-55 -56 0
53 -55 57 0
-53 -57 0
55 -57 0
56 57 58 0
-56 -58 0
-57 -58 0
12 -54 59 0
-12 -59 0
54 -59 0
59 55 60 0
-59 -60 0
-55 -60 0
-60 -61 62 0
60 -62 0
61 -62 0
-58 62 63 0
58 -63 0
-62 -63 0
48 63 64 0
-48 -64 0
-63 -64 0
-46 64 65 0
46 -65 0
-64 -65 0
23 31 66 0
-23 -66 0
-31 -66 0
-65 66 67 0
65 -67 0
-66 -67 0
42 -67 68 0
-42 -68 0
67 -68 0
22 -1 69 0
-22 -69 0
1 -69 0
-21 2 70 0
21 -70 0
-2 -70 0
-69 70 71 0
69 -71 0
-70 -71 0
60 61 72 0
-60 -72 0
-61 -72 0
72 58 73 0
-72 -73 0
-58 -73 0
73 32 74 0
-73 -74 0
-32 -74 0
-71 -74 75 0
71 -75 0
74 -75 0
15 -41 76 0
-15 -76 0
41 -76 0
72 76 77 0
-72 -77 0
-76 -77 0
-77 47 78 0
77 -78 0
-47 -78 0
78 -63 79 0
-78 -79 0
63 -79 0
-75 79 80 0
75 -80 0
-79 -80 0
-68 -80 81 0
68 -81 0
80 -81 0
81 0
